% plconverted_room_s10_a15_w1.lp
% #const maxexpans=0. Command: clingo --outf=1 room_s10_a15_w1.lp solver.lp > plconverted_room_s10_a15_w1.lp 1

% clingo version 5.6.2
% Reading from room_s10_a15_w1.lp ...
% Solving...
% Answer: 1
%ANSWER
plan(15,up,0). plan(14,left,0). plan(13,up,0). plan(12,up,0). plan(11,up,0). plan(10,up,0). plan(9,down,0). plan(8,left,0). plan(7,up,0). plan(6,up,0). plan(5,up,0). plan(4,right,0). plan(3,left,0). plan(2,up,0). plan(1,up,0). plan(1,up,1). plan(2,up,1). plan(3,stay,1). plan(4,up,1). plan(5,up,1). plan(6,up,1). plan(7,up,1). plan(8,up,1). plan(9,left,1). plan(10,up,1). plan(11,up,1). plan(12,up,1). plan(13,up,1). plan(14,down,1). plan(15,up,1). plan(15,down,2). plan(14,down,2). plan(13,up,2). plan(12,left,2). plan(11,stay,2). plan(10,up,2). plan(9,left,2). plan(8,down,2). plan(7,left,2). plan(6,up,2). plan(5,left,2). plan(4,up,2). plan(3,left,2). plan(2,down,2). plan(1,up,2). plan(1,stay,3). plan(2,up,3). plan(3,up,3). plan(4,up,3). plan(5,left,3). plan(6,up,3). plan(7,left,3). plan(8,left,3). plan(9,left,3). plan(10,up,3). plan(11,right,3). plan(12,left,3). plan(13,up,3). plan(14,down,3). plan(15,stay,3). plan(15,down,4). plan(14,down,4). plan(13,up,4). plan(12,left,4). plan(11,right,4). plan(10,left,4). plan(9,left,4). plan(8,left,4). plan(7,up,4). plan(6,down,4). plan(5,down,4). plan(4,up,4). plan(3,up,4). plan(2,down,4). plan(1,up,4). plan(1,stay,5). plan(2,down,5). plan(3,left,5). plan(4,left,5). plan(5,down,5). plan(6,up,5). plan(7,stay,5). plan(8,down,5). plan(9,down,5). plan(10,left,5). plan(11,up,5). plan(12,left,5). plan(13,up,5). plan(14,stay,5). plan(15,down,5). plan(15,left,6). plan(14,right,6). plan(13,down,6). plan(12,up,6). plan(11,up,6). plan(10,down,6). plan(9,stay,6). plan(8,stay,6). plan(7,up,6). plan(6,right,6). plan(5,down,6). plan(4,stay,6). plan(3,left,6). plan(2,stay,6). plan(1,down,6). plan(1,down,7). plan(2,stay,7). plan(3,down,7). plan(4,stay,7). plan(5,stay,7). plan(6,right,7). plan(7,up,7). plan(8,up,7). plan(9,up,7). plan(10,down,7). plan(11,down,7). plan(12,up,7). plan(13,down,7). plan(14,left,7). plan(15,stay,7). plan(15,right,8). plan(14,left,8). plan(13,down,8). plan(12,up,8). plan(11,down,8). plan(10,stay,8). plan(9,down,8). plan(8,down,8). plan(7,up,8). plan(6,right,8). plan(5,stay,8). plan(4,stay,8). plan(3,stay,8). plan(2,stay,8). plan(1,down,8). plan(1,down,9). plan(2,stay,9). plan(3,stay,9). plan(4,right,9). plan(5,stay,9). plan(6,right,9). plan(7,up,9). plan(8,stay,9). plan(9,up,9). plan(10,stay,9). plan(11,right,9). plan(12,up,9). plan(13,down,9). plan(14,left,9). plan(15,down,9). plan(15,down,10). plan(14,right,10). plan(13,right,10). plan(12,stay,10). plan(11,right,10). plan(10,stay,10). plan(9,stay,10). plan(8,down,10). plan(7,stay,10). plan(6,down,10). plan(5,stay,10). plan(4,stay,10). plan(3,stay,10). plan(2,stay,10). plan(1,down,10). plan(1,right,11). plan(2,stay,11). plan(3,up,11). plan(4,down,11). plan(5,stay,11). plan(6,down,11). plan(7,down,11). plan(8,stay,11). plan(9,down,11). plan(10,stay,11). plan(11,down,11). plan(12,down,11). plan(13,right,11). plan(14,right,11). plan(15,right,11). plan(15,right,12). plan(14,down,12). plan(13,down,12). plan(12,stay,12). plan(11,down,12). plan(10,up,12). plan(9,stay,12). plan(8,stay,12). plan(7,stay,12). plan(6,right,12). plan(5,up,12). plan(4,stay,12). plan(3,up,12). plan(2,stay,12). plan(1,right,12). plan(1,down,13). plan(2,up,13). plan(3,stay,13). plan(4,up,13). plan(5,up,13). plan(6,right,13). plan(7,down,13). plan(8,stay,13). plan(9,down,13). plan(10,up,13). plan(11,right,13). plan(12,down,13). plan(13,down,13). plan(14,down,13). plan(15,right,13). plan(15,right,14). plan(14,up,14). plan(13,right,14). plan(12,left,14). plan(11,right,14). plan(10,left,14). plan(9,down,14). plan(8,up,14). plan(7,down,14). plan(6,right,14). plan(5,up,14). plan(4,left,14). plan(3,stay,14). plan(2,up,14). plan(1,down,14). plan(1,right,15). plan(2,up,15). plan(3,up,15). plan(4,stay,15). plan(5,left,15). plan(6,right,15). plan(7,left,15). plan(8,up,15). plan(9,stay,15). plan(10,left,15). plan(11,right,15). plan(12,left,15). plan(13,right,15). plan(14,stay,15). plan(15,down,15). plan(15,stay,16). plan(14,stay,16). plan(13,up,16). plan(12,left,16). plan(11,left,16). plan(10,down,16). plan(9,down,16). plan(8,up,16). plan(7,stay,16). plan(6,up,16). plan(5,left,16). plan(4,right,16). plan(3,up,16). plan(2,up,16). plan(1,left,16). plan(1,up,17). plan(2,up,17). plan(3,up,17). plan(4,up,17). plan(5,down,17). plan(6,down,17). plan(7,left,17). plan(8,up,17). plan(9,left,17). plan(10,down,17). plan(11,stay,17). plan(12,stay,17). plan(13,up,17). plan(14,stay,17). plan(15,stay,17). plan(15,up,18). plan(14,up,18). plan(13,up,18). plan(12,right,18). plan(11,left,18). plan(10,down,18). plan(9,stay,18). plan(8,up,18). plan(7,down,18). plan(6,up,18). plan(5,down,18). plan(4,stay,18). plan(3,left,18). plan(2,up,18). plan(1,up,18). plan(1,up,19). plan(2,down,19). plan(3,left,19). plan(4,down,19). plan(5,down,19). plan(6,down,19). plan(7,down,19). plan(8,up,19). plan(9,left,19). plan(10,down,19). plan(11,left,19). plan(12,down,19). plan(13,up,19). plan(14,stay,19). plan(15,left,19). plan(15,left,20). plan(14,down,20). plan(13,right,20). plan(12,stay,20). plan(11,down,20). plan(10,up,20). plan(9,left,20). plan(8,up,20). plan(7,down,20). plan(6,down,20). plan(5,up,20). plan(4,stay,20). plan(3,up,20). plan(2,down,20). plan(1,up,20). plan(1,up,21). plan(2,right,21). plan(3,down,21). plan(4,up,21). plan(5,stay,21). plan(6,down,21). plan(7,down,21). plan(8,up,21). plan(9,right,21). plan(10,down,21). plan(11,down,21). plan(12,down,21). plan(13,stay,21). plan(14,down,21). plan(15,left,21). occurs(object(robot,1),action(move,(0,0)),3). occurs(object(robot,1),action(move,(0,0)),5). occurs(object(robot,2),action(move,(0,0)),6). occurs(object(robot,2),action(move,(0,0)),7). occurs(object(robot,2),action(move,(0,0)),8). occurs(object(robot,2),action(move,(0,0)),9). occurs(object(robot,2),action(move,(0,0)),10). occurs(object(robot,2),action(move,(0,0)),11). occurs(object(robot,2),action(move,(0,0)),12). occurs(object(robot,3),action(move,(0,0)),1). occurs(object(robot,3),action(move,(0,0)),8). occurs(object(robot,3),action(move,(0,0)),9). occurs(object(robot,3),action(move,(0,0)),10). occurs(object(robot,3),action(move,(0,0)),13). occurs(object(robot,3),action(move,(0,0)),14). occurs(object(robot,4),action(move,(0,0)),6). occurs(object(robot,4),action(move,(0,0)),7). occurs(object(robot,4),action(move,(0,0)),8). occurs(object(robot,4),action(move,(0,0)),10). occurs(object(robot,4),action(move,(0,0)),12). occurs(object(robot,4),action(move,(0,0)),15). occurs(object(robot,4),action(move,(0,0)),18). occurs(object(robot,4),action(move,(0,0)),20). occurs(object(robot,5),action(move,(0,0)),7). occurs(object(robot,5),action(move,(0,0)),8). occurs(object(robot,5),action(move,(0,0)),9). occurs(object(robot,5),action(move,(0,0)),10). occurs(object(robot,5),action(move,(0,0)),11). occurs(object(robot,5),action(move,(0,0)),21). occurs(object(robot,7),action(move,(0,0)),5). occurs(object(robot,7),action(move,(0,0)),10). occurs(object(robot,7),action(move,(0,0)),12). occurs(object(robot,7),action(move,(0,0)),16). occurs(object(robot,8),action(move,(0,0)),6). occurs(object(robot,8),action(move,(0,0)),9). occurs(object(robot,8),action(move,(0,0)),11). occurs(object(robot,8),action(move,(0,0)),12). occurs(object(robot,8),action(move,(0,0)),13). occurs(object(robot,9),action(move,(0,0)),6). occurs(object(robot,9),action(move,(0,0)),10). occurs(object(robot,9),action(move,(0,0)),12). occurs(object(robot,9),action(move,(0,0)),15). occurs(object(robot,9),action(move,(0,0)),18). occurs(object(robot,10),action(move,(0,0)),8). occurs(object(robot,10),action(move,(0,0)),9). occurs(object(robot,10),action(move,(0,0)),10). occurs(object(robot,10),action(move,(0,0)),11). occurs(object(robot,11),action(move,(0,0)),2). occurs(object(robot,11),action(move,(0,0)),17). occurs(object(robot,12),action(move,(0,0)),10). occurs(object(robot,12),action(move,(0,0)),12). occurs(object(robot,12),action(move,(0,0)),17). occurs(object(robot,12),action(move,(0,0)),20). occurs(object(robot,13),action(move,(0,0)),21). occurs(object(robot,14),action(move,(0,0)),5). occurs(object(robot,14),action(move,(0,0)),15). occurs(object(robot,14),action(move,(0,0)),16). occurs(object(robot,14),action(move,(0,0)),17). occurs(object(robot,14),action(move,(0,0)),19). occurs(object(robot,15),action(move,(0,0)),3). occurs(object(robot,15),action(move,(0,0)),7). occurs(object(robot,15),action(move,(0,0)),16). occurs(object(robot,15),action(move,(0,0)),17). occurs(object(robot,1),action(move,(0,-1)),6). occurs(object(robot,1),action(move,(0,-1)),7). occurs(object(robot,1),action(move,(0,-1)),8). occurs(object(robot,1),action(move,(0,-1)),9). occurs(object(robot,1),action(move,(0,-1)),10). occurs(object(robot,1),action(move,(0,-1)),13). occurs(object(robot,1),action(move,(0,-1)),14). occurs(object(robot,2),action(move,(0,-1)),2). occurs(object(robot,2),action(move,(0,-1)),4). occurs(object(robot,2),action(move,(0,-1)),5). occurs(object(robot,2),action(move,(0,-1)),19). occurs(object(robot,2),action(move,(0,-1)),20). occurs(object(robot,3),action(move,(0,-1)),7). occurs(object(robot,3),action(move,(0,-1)),21). occurs(object(robot,4),action(move,(0,-1)),11). occurs(object(robot,4),action(move,(0,-1)),19). occurs(object(robot,5),action(move,(0,-1)),4). occurs(object(robot,5),action(move,(0,-1)),5). occurs(object(robot,5),action(move,(0,-1)),6). occurs(object(robot,5),action(move,(0,-1)),17). occurs(object(robot,5),action(move,(0,-1)),18). occurs(object(robot,5),action(move,(0,-1)),19). occurs(object(robot,6),action(move,(0,-1)),4). occurs(object(robot,6),action(move,(0,-1)),10). occurs(object(robot,6),action(move,(0,-1)),11). occurs(object(robot,6),action(move,(0,-1)),17). occurs(object(robot,6),action(move,(0,-1)),19). occurs(object(robot,6),action(move,(0,-1)),20). occurs(object(robot,6),action(move,(0,-1)),21). occurs(object(robot,7),action(move,(0,-1)),11). occurs(object(robot,7),action(move,(0,-1)),13). occurs(object(robot,7),action(move,(0,-1)),14). occurs(object(robot,7),action(move,(0,-1)),18). occurs(object(robot,7),action(move,(0,-1)),19). occurs(object(robot,7),action(move,(0,-1)),20). occurs(object(robot,7),action(move,(0,-1)),21). occurs(object(robot,8),action(move,(0,-1)),2). occurs(object(robot,8),action(move,(0,-1)),5). occurs(object(robot,8),action(move,(0,-1)),8). occurs(object(robot,8),action(move,(0,-1)),10). occurs(object(robot,9),action(move,(0,-1)),0). occurs(object(robot,9),action(move,(0,-1)),5). occurs(object(robot,9),action(move,(0,-1)),8). occurs(object(robot,9),action(move,(0,-1)),11). occurs(object(robot,9),action(move,(0,-1)),13). occurs(object(robot,9),action(move,(0,-1)),14). occurs(object(robot,9),action(move,(0,-1)),16). occurs(object(robot,10),action(move,(0,-1)),6). occurs(object(robot,10),action(move,(0,-1)),7). occurs(object(robot,10),action(move,(0,-1)),16). occurs(object(robot,10),action(move,(0,-1)),17). occurs(object(robot,10),action(move,(0,-1)),18). occurs(object(robot,10),action(move,(0,-1)),19). occurs(object(robot,10),action(move,(0,-1)),21). occurs(object(robot,11),action(move,(0,-1)),7). occurs(object(robot,11),action(move,(0,-1)),8). occurs(object(robot,11),action(move,(0,-1)),11). occurs(object(robot,11),action(move,(0,-1)),12). occurs(object(robot,11),action(move,(0,-1)),20). occurs(object(robot,11),action(move,(0,-1)),21). occurs(object(robot,12),action(move,(0,-1)),11). occurs(object(robot,12),action(move,(0,-1)),13). occurs(object(robot,12),action(move,(0,-1)),19). occurs(object(robot,12),action(move,(0,-1)),21). occurs(object(robot,13),action(move,(0,-1)),6). occurs(object(robot,13),action(move,(0,-1)),7). occurs(object(robot,13),action(move,(0,-1)),8). occurs(object(robot,13),action(move,(0,-1)),9). occurs(object(robot,13),action(move,(0,-1)),12). occurs(object(robot,13),action(move,(0,-1)),13). occurs(object(robot,14),action(move,(0,-1)),1). occurs(object(robot,14),action(move,(0,-1)),2). occurs(object(robot,14),action(move,(0,-1)),3). occurs(object(robot,14),action(move,(0,-1)),4). occurs(object(robot,14),action(move,(0,-1)),12). occurs(object(robot,14),action(move,(0,-1)),13). occurs(object(robot,14),action(move,(0,-1)),20). occurs(object(robot,14),action(move,(0,-1)),21). occurs(object(robot,15),action(move,(0,-1)),2). occurs(object(robot,15),action(move,(0,-1)),4). occurs(object(robot,15),action(move,(0,-1)),5). occurs(object(robot,15),action(move,(0,-1)),9). occurs(object(robot,15),action(move,(0,-1)),10). occurs(object(robot,15),action(move,(0,-1)),15). occurs(object(robot,1),action(move,(-1,0)),16). occurs(object(robot,3),action(move,(-1,0)),0). occurs(object(robot,3),action(move,(-1,0)),2). occurs(object(robot,3),action(move,(-1,0)),5). occurs(object(robot,3),action(move,(-1,0)),6). occurs(object(robot,3),action(move,(-1,0)),18). occurs(object(robot,3),action(move,(-1,0)),19). occurs(object(robot,4),action(move,(-1,0)),5). occurs(object(robot,4),action(move,(-1,0)),14). occurs(object(robot,5),action(move,(-1,0)),2). occurs(object(robot,5),action(move,(-1,0)),3). occurs(object(robot,5),action(move,(-1,0)),15). occurs(object(robot,5),action(move,(-1,0)),16). occurs(object(robot,7),action(move,(-1,0)),2). occurs(object(robot,7),action(move,(-1,0)),3). occurs(object(robot,7),action(move,(-1,0)),15). occurs(object(robot,7),action(move,(-1,0)),17). occurs(object(robot,8),action(move,(-1,0)),0). occurs(object(robot,8),action(move,(-1,0)),3). occurs(object(robot,8),action(move,(-1,0)),4). occurs(object(robot,9),action(move,(-1,0)),1). occurs(object(robot,9),action(move,(-1,0)),2). occurs(object(robot,9),action(move,(-1,0)),3). occurs(object(robot,9),action(move,(-1,0)),4). occurs(object(robot,9),action(move,(-1,0)),17). occurs(object(robot,9),action(move,(-1,0)),19). occurs(object(robot,9),action(move,(-1,0)),20). occurs(object(robot,10),action(move,(-1,0)),4). occurs(object(robot,10),action(move,(-1,0)),5). occurs(object(robot,10),action(move,(-1,0)),14). occurs(object(robot,10),action(move,(-1,0)),15). occurs(object(robot,11),action(move,(-1,0)),16). occurs(object(robot,11),action(move,(-1,0)),18). occurs(object(robot,11),action(move,(-1,0)),19). occurs(object(robot,12),action(move,(-1,0)),2). occurs(object(robot,12),action(move,(-1,0)),3). occurs(object(robot,12),action(move,(-1,0)),4). occurs(object(robot,12),action(move,(-1,0)),5). occurs(object(robot,12),action(move,(-1,0)),14). occurs(object(robot,12),action(move,(-1,0)),15). occurs(object(robot,12),action(move,(-1,0)),16). occurs(object(robot,14),action(move,(-1,0)),0). occurs(object(robot,14),action(move,(-1,0)),7). occurs(object(robot,14),action(move,(-1,0)),8). occurs(object(robot,14),action(move,(-1,0)),9). occurs(object(robot,15),action(move,(-1,0)),6). occurs(object(robot,15),action(move,(-1,0)),19). occurs(object(robot,15),action(move,(-1,0)),20). occurs(object(robot,15),action(move,(-1,0)),21). occurs(object(robot,1),action(move,(0,1)),0). occurs(object(robot,1),action(move,(0,1)),1). occurs(object(robot,1),action(move,(0,1)),2). occurs(object(robot,1),action(move,(0,1)),4). occurs(object(robot,1),action(move,(0,1)),17). occurs(object(robot,1),action(move,(0,1)),18). occurs(object(robot,1),action(move,(0,1)),19). occurs(object(robot,1),action(move,(0,1)),20). occurs(object(robot,1),action(move,(0,1)),21). occurs(object(robot,2),action(move,(0,1)),0). occurs(object(robot,2),action(move,(0,1)),1). occurs(object(robot,2),action(move,(0,1)),3). occurs(object(robot,2),action(move,(0,1)),13). occurs(object(robot,2),action(move,(0,1)),14). occurs(object(robot,2),action(move,(0,1)),15). occurs(object(robot,2),action(move,(0,1)),16). occurs(object(robot,2),action(move,(0,1)),17). occurs(object(robot,2),action(move,(0,1)),18). occurs(object(robot,3),action(move,(0,1)),3). occurs(object(robot,3),action(move,(0,1)),4). occurs(object(robot,3),action(move,(0,1)),11). occurs(object(robot,3),action(move,(0,1)),12). occurs(object(robot,3),action(move,(0,1)),15). occurs(object(robot,3),action(move,(0,1)),16). occurs(object(robot,3),action(move,(0,1)),17). occurs(object(robot,3),action(move,(0,1)),20). occurs(object(robot,4),action(move,(0,1)),1). occurs(object(robot,4),action(move,(0,1)),2). occurs(object(robot,4),action(move,(0,1)),3). occurs(object(robot,4),action(move,(0,1)),4). occurs(object(robot,4),action(move,(0,1)),13). occurs(object(robot,4),action(move,(0,1)),17). occurs(object(robot,4),action(move,(0,1)),21). occurs(object(robot,5),action(move,(0,1)),0). occurs(object(robot,5),action(move,(0,1)),1). occurs(object(robot,5),action(move,(0,1)),12). occurs(object(robot,5),action(move,(0,1)),13). occurs(object(robot,5),action(move,(0,1)),14). occurs(object(robot,5),action(move,(0,1)),20). occurs(object(robot,6),action(move,(0,1)),0). occurs(object(robot,6),action(move,(0,1)),1). occurs(object(robot,6),action(move,(0,1)),2). occurs(object(robot,6),action(move,(0,1)),3). occurs(object(robot,6),action(move,(0,1)),5). occurs(object(robot,6),action(move,(0,1)),16). occurs(object(robot,6),action(move,(0,1)),18). occurs(object(robot,7),action(move,(0,1)),0). occurs(object(robot,7),action(move,(0,1)),1). occurs(object(robot,7),action(move,(0,1)),4). occurs(object(robot,7),action(move,(0,1)),6). occurs(object(robot,7),action(move,(0,1)),7). occurs(object(robot,7),action(move,(0,1)),8). occurs(object(robot,7),action(move,(0,1)),9). occurs(object(robot,8),action(move,(0,1)),1). occurs(object(robot,8),action(move,(0,1)),7). occurs(object(robot,8),action(move,(0,1)),14). occurs(object(robot,8),action(move,(0,1)),15). occurs(object(robot,8),action(move,(0,1)),16). occurs(object(robot,8),action(move,(0,1)),17). occurs(object(robot,8),action(move,(0,1)),18). occurs(object(robot,8),action(move,(0,1)),19). occurs(object(robot,8),action(move,(0,1)),20). occurs(object(robot,8),action(move,(0,1)),21). occurs(object(robot,9),action(move,(0,1)),7). occurs(object(robot,9),action(move,(0,1)),9). occurs(object(robot,10),action(move,(0,1)),0). occurs(object(robot,10),action(move,(0,1)),1). occurs(object(robot,10),action(move,(0,1)),2). occurs(object(robot,10),action(move,(0,1)),3). occurs(object(robot,10),action(move,(0,1)),12). occurs(object(robot,10),action(move,(0,1)),13). occurs(object(robot,10),action(move,(0,1)),20). occurs(object(robot,11),action(move,(0,1)),0). occurs(object(robot,11),action(move,(0,1)),1). occurs(object(robot,11),action(move,(0,1)),5). occurs(object(robot,11),action(move,(0,1)),6). occurs(object(robot,12),action(move,(0,1)),0). occurs(object(robot,12),action(move,(0,1)),1). occurs(object(robot,12),action(move,(0,1)),6). occurs(object(robot,12),action(move,(0,1)),7). occurs(object(robot,12),action(move,(0,1)),8). occurs(object(robot,12),action(move,(0,1)),9). occurs(object(robot,13),action(move,(0,1)),0). occurs(object(robot,13),action(move,(0,1)),1). occurs(object(robot,13),action(move,(0,1)),2). occurs(object(robot,13),action(move,(0,1)),3). occurs(object(robot,13),action(move,(0,1)),4). occurs(object(robot,13),action(move,(0,1)),5). occurs(object(robot,13),action(move,(0,1)),16). occurs(object(robot,13),action(move,(0,1)),17). occurs(object(robot,13),action(move,(0,1)),18). occurs(object(robot,13),action(move,(0,1)),19). occurs(object(robot,14),action(move,(0,1)),14). occurs(object(robot,14),action(move,(0,1)),18). occurs(object(robot,15),action(move,(0,1)),0). occurs(object(robot,15),action(move,(0,1)),1). occurs(object(robot,15),action(move,(0,1)),18). occurs(object(robot,1),action(move,(1,0)),11). occurs(object(robot,1),action(move,(1,0)),12). occurs(object(robot,1),action(move,(1,0)),15). occurs(object(robot,2),action(move,(1,0)),21). occurs(object(robot,4),action(move,(1,0)),0). occurs(object(robot,4),action(move,(1,0)),9). occurs(object(robot,4),action(move,(1,0)),16). occurs(object(robot,6),action(move,(1,0)),6). occurs(object(robot,6),action(move,(1,0)),7). occurs(object(robot,6),action(move,(1,0)),8). occurs(object(robot,6),action(move,(1,0)),9). occurs(object(robot,6),action(move,(1,0)),12). occurs(object(robot,6),action(move,(1,0)),13). occurs(object(robot,6),action(move,(1,0)),14). occurs(object(robot,6),action(move,(1,0)),15). occurs(object(robot,9),action(move,(1,0)),21). occurs(object(robot,11),action(move,(1,0)),3). occurs(object(robot,11),action(move,(1,0)),4). occurs(object(robot,11),action(move,(1,0)),9). occurs(object(robot,11),action(move,(1,0)),10). occurs(object(robot,11),action(move,(1,0)),13). occurs(object(robot,11),action(move,(1,0)),14). occurs(object(robot,11),action(move,(1,0)),15). occurs(object(robot,12),action(move,(1,0)),18). occurs(object(robot,13),action(move,(1,0)),10). occurs(object(robot,13),action(move,(1,0)),11). occurs(object(robot,13),action(move,(1,0)),14). occurs(object(robot,13),action(move,(1,0)),15). occurs(object(robot,13),action(move,(1,0)),20). occurs(object(robot,14),action(move,(1,0)),6). occurs(object(robot,14),action(move,(1,0)),10). occurs(object(robot,14),action(move,(1,0)),11). occurs(object(robot,15),action(move,(1,0)),8). occurs(object(robot,15),action(move,(1,0)),11). occurs(object(robot,15),action(move,(1,0)),12). occurs(object(robot,15),action(move,(1,0)),13). occurs(object(robot,15),action(move,(1,0)),14).
%COST 6
% 
% Models         : 1+
%   Optimum      : unknown
% Optimization   : 6
% Calls          : 1
% Time           : 36.096s (Solving: 35.52s 1st Model: 35.52s Unsat: 0.00s)
% CPU Time       : 36.047s
